;; MathSAT API call trace
;; generated on Sat Jul 11 15:20:14 2020
;;
;; fzn-optimathsat configuration:
;;    --int-enc=True
;;    --bv-enc=False
;;    --cardinality-networks=False
;; target solver: optimathsat
;;
(set-option :global-decls true)
(declare-fun X_INTRODUCED_0_ () Int)
(define-fun .8 () Int 1)
(define-fun .11 () Int X_INTRODUCED_0_)
(define-fun .12 () Int 4)
(define-fun .13 () Bool (<= .11 .12))
(define-fun .14 () Bool (<= .8 .11))
(define-fun .15 () Bool (and .13 .14))
(assert .15)
(declare-fun X_INTRODUCED_1_ () Int)
(define-fun .16 () Int X_INTRODUCED_1_)
(define-fun .17 () Bool (<= .16 .12))
(define-fun .18 () Bool (<= .8 .16))
(define-fun .19 () Bool (and .17 .18))
(assert .19)
(declare-fun X_INTRODUCED_2_ () Int)
(define-fun .20 () Int X_INTRODUCED_2_)
(define-fun .21 () Bool (<= .20 .12))
(define-fun .22 () Bool (<= .8 .20))
(define-fun .23 () Bool (and .21 .22))
(assert .23)
(declare-fun X_INTRODUCED_3_ () Int)
(define-fun .24 () Int X_INTRODUCED_3_)
(define-fun .25 () Bool (<= .24 .12))
(define-fun .26 () Bool (<= .8 .24))
(define-fun .27 () Bool (and .25 .26))
(assert .27)
(declare-fun X_INTRODUCED_5_ () Int)
(define-fun .28 () Int X_INTRODUCED_5_)
(define-fun .29 () Int 3)
(define-fun .30 () Bool (<= .28 .29))
(define-fun .31 () Int (- 3))
(define-fun .32 () Bool (<= .31 .28))
(define-fun .33 () Bool (and .30 .32))
(assert .33)
(declare-fun X_INTRODUCED_7_ () Bool)
(declare-fun X_INTRODUCED_8_ () Int)
(define-fun .35 () Int X_INTRODUCED_8_)
(define-fun .36 () Bool (<= .35 .29))
(define-fun .37 () Bool (<= .31 .35))
(define-fun .38 () Bool (and .36 .37))
(assert .38)
(declare-fun X_INTRODUCED_9_ () Bool)
(declare-fun X_INTRODUCED_10_ () Bool)
(declare-fun X_INTRODUCED_11_ () Int)
(define-fun .41 () Int X_INTRODUCED_11_)
(define-fun .42 () Bool (<= .41 .29))
(define-fun .43 () Bool (<= .31 .41))
(define-fun .44 () Bool (and .42 .43))
(assert .44)
(declare-fun X_INTRODUCED_12_ () Bool)
(declare-fun X_INTRODUCED_13_ () Int)
(define-fun .46 () Int X_INTRODUCED_13_)
(define-fun .47 () Bool (<= .46 .29))
(define-fun .48 () Bool (<= .31 .46))
(define-fun .49 () Bool (and .47 .48))
(assert .49)
(declare-fun X_INTRODUCED_14_ () Bool)
(declare-fun X_INTRODUCED_15_ () Bool)
(declare-fun S () Int)
(define-fun .9 () Int 0)
(define-fun .52 () Int S)
(define-fun .53 () Int 2)
(define-fun .54 () Bool (<= .52 .53))
(define-fun .55 () Bool (<= .9 .52))
(define-fun .56 () Bool (and .54 .55))
(assert .56)
(declare-fun X_INTRODUCED_16_ () Int)
(define-fun .57 () Int X_INTRODUCED_16_)
(define-fun .58 () Bool (<= .57 .8))
(define-fun .59 () Bool (<= .9 .57))
(define-fun .60 () Bool (and .58 .59))
(assert .60)
(declare-fun X_INTRODUCED_17_ () Int)
(define-fun .61 () Int X_INTRODUCED_17_)
(define-fun .62 () Bool (<= .61 .8))
(define-fun .63 () Bool (<= .9 .61))
(define-fun .64 () Bool (and .62 .63))
(assert .64)
(declare-fun M () Int)
(define-fun .65 () Int M)
(define-fun .66 () Bool (<= .65 .53))
(define-fun .67 () Bool (<= .9 .65))
(define-fun .68 () Bool (and .66 .67))
(assert .68)
(declare-fun X_INTRODUCED_20_ () Bool)
(declare-fun X_INTRODUCED_22_ () Bool)
(declare-fun X_INTRODUCED_23_ () Int)
(define-fun .71 () Int X_INTRODUCED_23_)
(define-fun .72 () Bool (<= .71 .8))
(define-fun .73 () Bool (<= .9 .71))
(define-fun .74 () Bool (and .72 .73))
(assert .74)
(declare-fun X_INTRODUCED_25_ () Bool)
(declare-fun X_INTRODUCED_26_ () Bool)
(declare-fun X_INTRODUCED_27_ () Bool)
(declare-fun X_INTRODUCED_28_ () Int)
(define-fun .78 () Int X_INTRODUCED_28_)
(define-fun .79 () Bool (<= .78 .8))
(define-fun .80 () Bool (<= .9 .78))
(define-fun .81 () Bool (and .79 .80))
(assert .81)
(declare-fun X_INTRODUCED_29_ () Int)
(define-fun .82 () Int X_INTRODUCED_29_)
(define-fun .83 () Bool (<= .82 .53))
(define-fun .84 () Bool (<= .9 .82))
(define-fun .85 () Bool (and .83 .84))
(assert .85)
(declare-fun X_INTRODUCED_31_ () Bool)
(declare-fun X_INTRODUCED_32_ () Int)
(define-fun .87 () Int X_INTRODUCED_32_)
(define-fun .88 () Bool (<= .87 .8))
(define-fun .89 () Bool (<= .9 .87))
(define-fun .90 () Bool (and .88 .89))
(assert .90)
(declare-fun X_INTRODUCED_34_ () Bool)
(declare-fun X_INTRODUCED_35_ () Bool)
(declare-fun X_INTRODUCED_36_ () Int)
(define-fun .93 () Int X_INTRODUCED_36_)
(define-fun .94 () Bool (<= .93 .8))
(define-fun .95 () Bool (<= .9 .93))
(define-fun .96 () Bool (and .94 .95))
(assert .96)
(declare-fun X_INTRODUCED_38_ () Int)
(define-fun .97 () Int X_INTRODUCED_38_)
(define-fun .98 () Bool (<= .97 .53))
(define-fun .99 () Bool (<= .9 .97))
(define-fun .100 () Bool (and .98 .99))
(assert .100)
(declare-fun X_INTRODUCED_39_ () Bool)
(declare-fun X_INTRODUCED_40_ () Bool)
(declare-fun X_INTRODUCED_41_ () Int)
(define-fun .103 () Int X_INTRODUCED_41_)
(define-fun .104 () Bool (<= .103 .8))
(define-fun .105 () Bool (<= .9 .103))
(define-fun .106 () Bool (and .104 .105))
(assert .106)
(declare-fun X_INTRODUCED_42_ () Bool)
(declare-fun X_INTRODUCED_43_ () Bool)
(declare-fun X_INTRODUCED_44_ () Int)
(define-fun .109 () Int X_INTRODUCED_44_)
(define-fun .110 () Bool (<= .109 .8))
(define-fun .111 () Bool (<= .9 .109))
(define-fun .112 () Bool (and .110 .111))
(assert .112)
(declare-fun X_INTRODUCED_45_ () Int)
(define-fun .113 () Int X_INTRODUCED_45_)
(define-fun .114 () Bool (<= .113 .53))
(define-fun .115 () Bool (<= .9 .113))
(define-fun .116 () Bool (and .114 .115))
(assert .116)
(declare-fun X_INTRODUCED_46_ () Bool)
(declare-fun X_INTRODUCED_47_ () Int)
(define-fun .118 () Int X_INTRODUCED_47_)
(define-fun .119 () Bool (<= .118 .8))
(define-fun .120 () Bool (<= .9 .118))
(define-fun .121 () Bool (and .119 .120))
(assert .121)
(declare-fun X_INTRODUCED_48_ () Bool)
(declare-fun X_INTRODUCED_49_ () Int)
(define-fun .123 () Int X_INTRODUCED_49_)
(define-fun .124 () Bool (<= .123 .8))
(define-fun .125 () Bool (<= .9 .123))
(define-fun .126 () Bool (and .124 .125))
(assert .126)
(declare-fun X_INTRODUCED_50_ () Int)
(define-fun .127 () Int X_INTRODUCED_50_)
(define-fun .128 () Bool (<= .127 .53))
(define-fun .129 () Bool (<= .9 .127))
(define-fun .130 () Bool (and .128 .129))
(assert .130)
(declare-fun X_INTRODUCED_54_ () Int)
(define-fun .131 () Int X_INTRODUCED_54_)
(define-fun .132 () Bool (<= .131 .29))
(define-fun .133 () Bool (<= .31 .131))
(define-fun .134 () Bool (and .132 .133))
(assert .134)
(declare-fun X_INTRODUCED_56_ () Int)
(define-fun .135 () Int X_INTRODUCED_56_)
(define-fun .136 () Bool (<= .135 .29))
(define-fun .137 () Bool (<= .31 .135))
(define-fun .138 () Bool (and .136 .137))
(assert .138)
(declare-fun X_INTRODUCED_58_ () Int)
(define-fun .139 () Int X_INTRODUCED_58_)
(define-fun .140 () Bool (<= .139 .29))
(define-fun .141 () Bool (<= .31 .139))
(define-fun .142 () Bool (and .140 .141))
(assert .142)
(declare-fun X_INTRODUCED_59_ () Bool)
(declare-fun X_INTRODUCED_60_ () Int)
(define-fun .144 () Int X_INTRODUCED_60_)
(define-fun .145 () Bool (<= .144 .8))
(define-fun .146 () Bool (<= .9 .144))
(define-fun .147 () Bool (and .145 .146))
(assert .147)
(declare-fun X_INTRODUCED_61_ () Bool)
(declare-fun X_INTRODUCED_62_ () Int)
(define-fun .149 () Int X_INTRODUCED_62_)
(define-fun .150 () Bool (<= .149 .8))
(define-fun .151 () Bool (<= .9 .149))
(define-fun .152 () Bool (and .150 .151))
(assert .152)
(declare-fun obj () Int)
(define-fun .153 () Int obj)
(define-fun .154 () Int 170)
(define-fun .155 () Bool (<= .153 .154))
(define-fun .156 () Int (- 16))
(define-fun .157 () Bool (<= .156 .153))
(define-fun .158 () Bool (and .155 .157))
(assert .158)
(define-fun .162 () Bool (<= .82 .65))
(define-fun .163 () Bool (<= .65 .82))
(define-fun .164 () Bool (<= .97 .65))
(define-fun .165 () Bool (and .162 .164))
(define-fun .166 () Bool (<= .65 .97))
(define-fun .167 () Bool (or .163 .166))
(define-fun .168 () Bool (<= .113 .65))
(define-fun .169 () Bool (and .165 .168))
(define-fun .170 () Bool (<= .65 .113))
(define-fun .171 () Bool (or .167 .170))
(define-fun .172 () Bool (<= .127 .65))
(define-fun .173 () Bool (and .169 .172))
(define-fun .174 () Bool (<= .65 .127))
(define-fun .175 () Bool (or .171 .174))
(define-fun .176 () Bool (and .173 .175))
(assert .176)
(define-fun .177 () Bool (<= .46 .131))
(define-fun .178 () Bool (<= .35 .131))
(define-fun .179 () Bool (and .177 .178))
(define-fun .180 () Bool (<= .131 .46))
(define-fun .181 () Bool (<= .131 .35))
(define-fun .182 () Bool (or .180 .181))
(define-fun .183 () Bool (and .179 .182))
(assert .183)
(define-fun .184 () Bool (<= .41 .135))
(define-fun .185 () Bool (<= .28 .135))
(define-fun .186 () Bool (and .184 .185))
(define-fun .187 () Bool (<= .135 .41))
(define-fun .188 () Bool (<= .135 .28))
(define-fun .189 () Bool (or .187 .188))
(define-fun .190 () Bool (and .186 .189))
(assert .190)
(define-fun .191 () Bool (<= .135 .139))
(define-fun .192 () Bool (<= .131 .139))
(define-fun .193 () Bool (and .191 .192))
(define-fun .194 () Bool (<= .139 .135))
(define-fun .195 () Bool (<= .139 .131))
(define-fun .196 () Bool (or .194 .195))
(define-fun .197 () Bool (and .193 .196))
(assert .197)
(define-fun .198 () (_ BitVec 3) ((_ to_bv 3) .11))
(define-fun .199 () (_ BitVec 3) (_ bv4 3))
(define-fun .201 () Bool (bvult .199 .198))
(define-fun .202 () Bool (not .201))
(define-fun .206 () (_ BitVec 3) (_ bv0 3))
(define-fun .207 () Bool (= .198 .206))
(define-fun .208 () Bool (not .207))
(define-fun .209 () Bool (and .202 .208))
(define-fun .210 () (_ BitVec 3) ((_ to_bv 3) .16))
(define-fun .211 () Bool (= .198 .210))
(define-fun .212 () Bool (not .211))
(define-fun .213 () Bool (and .209 .212))
(define-fun .214 () (_ BitVec 3) ((_ to_bv 3) .20))
(define-fun .215 () Bool (= .198 .214))
(define-fun .216 () Bool (not .215))
(define-fun .217 () Bool (and .213 .216))
(define-fun .218 () (_ BitVec 3) ((_ to_bv 3) .24))
(define-fun .219 () Bool (= .198 .218))
(define-fun .220 () Bool (not .219))
(define-fun .221 () Bool (and .217 .220))
(define-fun .223 () Bool (bvult .199 .210))
(define-fun .224 () Bool (not .223))
(define-fun .227 () Bool (= .210 .206))
(define-fun .228 () Bool (not .227))
(define-fun .229 () Bool (and .224 .228))
(define-fun .230 () Bool (and .221 .229))
(define-fun .231 () Bool (= .210 .214))
(define-fun .232 () Bool (not .231))
(define-fun .233 () Bool (and .230 .232))
(define-fun .234 () Bool (= .210 .218))
(define-fun .235 () Bool (not .234))
(define-fun .236 () Bool (and .233 .235))
(define-fun .238 () Bool (bvult .199 .214))
(define-fun .239 () Bool (not .238))
(define-fun .242 () Bool (= .214 .206))
(define-fun .243 () Bool (not .242))
(define-fun .244 () Bool (and .239 .243))
(define-fun .245 () Bool (and .236 .244))
(define-fun .246 () Bool (= .214 .218))
(define-fun .247 () Bool (not .246))
(define-fun .248 () Bool (and .245 .247))
(define-fun .250 () Bool (bvult .199 .218))
(define-fun .251 () Bool (not .250))
(define-fun .254 () Bool (= .218 .206))
(define-fun .255 () Bool (not .254))
(define-fun .256 () Bool (and .251 .255))
(define-fun .257 () Bool (and .248 .256))
(assert .257)
(define-fun .10 () Int (- 1))
(define-fun .260 () Int (* .10 .24))
(define-fun .261 () Int (+ .16 .260))
(define-fun .262 () Bool (<= .8 .261))
(assert .262)
(define-fun .267 () Int (* .10 .20))
(define-fun .268 () Int (+ .267 .28))
(define-fun .269 () Int (+ .11 .268))
(define-fun .270 () Bool (= .269 .9))
(assert .270)
(define-fun .34 () Bool X_INTRODUCED_7_)
(define-fun .159 () Int (- 2))
(define-fun .271 () Int (+ .11 .267))
(define-fun .272 () Bool (<= .271 .159))
(define-fun .273 () Bool (not .272))
(define-fun .274 () Bool (or .34 .273))
(define-fun .275 () Bool (not .34))
(define-fun .276 () Bool (or .272 .275))
(define-fun .277 () Bool (and .274 .276))
(assert .277)
(define-fun .278 () Int (* .10 .35))
(define-fun .280 () Int (+ .267 .278))
(define-fun .281 () Int (+ .11 .280))
(define-fun .282 () Bool (= .281 .9))
(assert .282)
(define-fun .39 () Bool X_INTRODUCED_9_)
(define-fun .283 () Bool (<= .53 .271))
(define-fun .284 () Bool (not .283))
(define-fun .285 () Bool (or .39 .284))
(define-fun .286 () Bool (not .39))
(define-fun .287 () Bool (or .283 .286))
(define-fun .288 () Bool (and .285 .287))
(assert .288)
(define-fun .40 () Bool X_INTRODUCED_10_)
(define-fun .289 () Bool (not .40))
(define-fun .290 () Bool (or .40 .275))
(define-fun .291 () Bool (or .34 .289))
(define-fun .292 () Bool (or .40 .286))
(define-fun .293 () Bool (and .290 .292))
(define-fun .294 () Bool (or .39 .291))
(define-fun .295 () Bool (and .293 .294))
(assert .295)
(define-fun .298 () Int (+ .260 .41))
(define-fun .299 () Int (+ .16 .298))
(define-fun .300 () Bool (= .299 .9))
(assert .300)
(define-fun .45 () Bool X_INTRODUCED_12_)
(define-fun .301 () Bool (<= .261 .159))
(define-fun .302 () Bool (not .301))
(define-fun .303 () Bool (or .45 .302))
(define-fun .304 () Bool (not .45))
(define-fun .305 () Bool (or .301 .304))
(define-fun .306 () Bool (and .303 .305))
(assert .306)
(define-fun .307 () Int (* .10 .46))
(define-fun .309 () Int (+ .260 .307))
(define-fun .310 () Int (+ .16 .309))
(define-fun .311 () Bool (= .310 .9))
(assert .311)
(define-fun .50 () Bool X_INTRODUCED_14_)
(define-fun .312 () Bool (<= .53 .261))
(define-fun .313 () Bool (not .312))
(define-fun .314 () Bool (or .50 .313))
(define-fun .315 () Bool (not .50))
(define-fun .316 () Bool (or .312 .315))
(define-fun .317 () Bool (and .314 .316))
(assert .317)
(define-fun .51 () Bool X_INTRODUCED_15_)
(define-fun .318 () Bool (not .51))
(define-fun .319 () Bool (or .51 .304))
(define-fun .320 () Bool (or .45 .318))
(define-fun .321 () Bool (or .51 .315))
(define-fun .322 () Bool (and .319 .321))
(define-fun .323 () Bool (or .50 .320))
(define-fun .324 () Bool (and .322 .323))
(assert .324)
(define-fun .328 () Int (* .10 .61))
(define-fun .329 () Int (* .10 .57))
(define-fun .330 () Int (+ .329 .328))
(define-fun .331 () Int (+ .52 .330))
(define-fun .332 () Bool (= .331 .9))
(assert .332)
(define-fun .333 () Bool (<= .57 .9))
(define-fun .334 () Bool (<= .8 .57))
(define-fun .335 () Bool (not .334))
(define-fun .336 () Bool (not .333))
(define-fun .337 () Bool (or .335 .336))
(define-fun .338 () Bool (or .40 .333))
(define-fun .339 () Bool (and .337 .338))
(define-fun .340 () Bool (or .289 .334))
(define-fun .341 () Bool (and .339 .340))
(define-fun .342 () Bool (and .59 .341))
(define-fun .343 () Bool (and .58 .342))
(assert .343)
(define-fun .344 () Bool (<= .61 .9))
(define-fun .345 () Bool (<= .8 .61))
(define-fun .346 () Bool (not .345))
(define-fun .347 () Bool (not .344))
(define-fun .348 () Bool (or .346 .347))
(define-fun .349 () Bool (or .51 .344))
(define-fun .350 () Bool (and .348 .349))
(define-fun .351 () Bool (or .318 .345))
(define-fun .352 () Bool (and .350 .351))
(define-fun .353 () Bool (and .63 .352))
(define-fun .354 () Bool (and .62 .353))
(assert .354)
(define-fun .69 () Bool X_INTRODUCED_20_)
(define-fun .258 () Int (* .10 .16))
(define-fun .355 () Int (+ .11 .258))
(define-fun .356 () Bool (<= .355 .10))
(define-fun .357 () Bool (not .356))
(define-fun .358 () Bool (or .69 .357))
(define-fun .359 () Bool (not .69))
(define-fun .360 () Bool (or .356 .359))
(define-fun .361 () Bool (and .358 .360))
(assert .361)
(define-fun .363 () Int (+ .11 .260))
(define-fun .364 () Bool (<= .8 .363))
(assert .364)
(define-fun .70 () Bool X_INTRODUCED_22_)
(define-fun .365 () Bool (not .70))
(define-fun .366 () Bool (or .69 .365))
(define-fun .367 () Bool (or .70 .359))
(define-fun .368 () Bool (and .366 .367))
(assert .368)
(define-fun .369 () Bool (<= .71 .9))
(define-fun .370 () Bool (<= .8 .71))
(define-fun .371 () Bool (not .370))
(define-fun .372 () Bool (not .369))
(define-fun .373 () Bool (or .371 .372))
(define-fun .374 () Bool (or .70 .369))
(define-fun .375 () Bool (and .373 .374))
(define-fun .376 () Bool (or .365 .370))
(define-fun .377 () Bool (and .375 .376))
(define-fun .378 () Bool (and .73 .377))
(define-fun .379 () Bool (and .72 .378))
(assert .379)
(define-fun .75 () Bool X_INTRODUCED_25_)
(define-fun .380 () Bool (<= .363 .10))
(define-fun .381 () Bool (not .380))
(define-fun .382 () Bool (or .75 .381))
(define-fun .383 () Bool (not .75))
(define-fun .384 () Bool (or .380 .383))
(define-fun .385 () Bool (and .382 .384))
(assert .385)
(define-fun .76 () Bool X_INTRODUCED_26_)
(define-fun .387 () Bool (<= .8 .355))
(define-fun .388 () Bool (not .387))
(define-fun .389 () Bool (or .76 .388))
(define-fun .390 () Bool (not .76))
(define-fun .391 () Bool (or .387 .390))
(define-fun .392 () Bool (and .389 .391))
(assert .392)
(define-fun .77 () Bool X_INTRODUCED_27_)
(define-fun .393 () Bool (not .77))
(define-fun .394 () Bool (or .75 .393))
(define-fun .395 () Bool (or .77 .383))
(define-fun .396 () Bool (or .76 .393))
(define-fun .397 () Bool (and .394 .396))
(define-fun .398 () Bool (or .390 .395))
(define-fun .399 () Bool (and .397 .398))
(assert .399)
(define-fun .400 () Bool (<= .78 .9))
(define-fun .401 () Bool (<= .8 .78))
(define-fun .402 () Bool (not .401))
(define-fun .403 () Bool (not .400))
(define-fun .404 () Bool (or .402 .403))
(define-fun .405 () Bool (or .77 .400))
(define-fun .406 () Bool (and .404 .405))
(define-fun .407 () Bool (or .393 .401))
(define-fun .408 () Bool (and .406 .407))
(define-fun .409 () Bool (and .80 .408))
(define-fun .410 () Bool (and .79 .409))
(assert .410)
(define-fun .412 () Int (* .10 .82))
(define-fun .414 () Int (+ .78 .412))
(define-fun .415 () Int (+ .71 .414))
(define-fun .416 () Bool (= .415 .9))
(assert .416)
(define-fun .418 () Int (+ .16 .267))
(define-fun .419 () Bool (<= .8 .418))
(assert .419)
(define-fun .86 () Bool X_INTRODUCED_31_)
(define-fun .420 () Bool (not .86))
(define-fun .421 () Bool (or .76 .420))
(define-fun .422 () Bool (or .86 .390))
(define-fun .423 () Bool (and .421 .422))
(assert .423)
(define-fun .424 () Bool (<= .87 .9))
(define-fun .425 () Bool (<= .8 .87))
(define-fun .426 () Bool (not .425))
(define-fun .427 () Bool (not .424))
(define-fun .428 () Bool (or .426 .427))
(define-fun .429 () Bool (or .86 .424))
(define-fun .430 () Bool (and .428 .429))
(define-fun .431 () Bool (or .420 .425))
(define-fun .432 () Bool (and .430 .431))
(define-fun .433 () Bool (and .89 .432))
(define-fun .434 () Bool (and .88 .433))
(assert .434)
(define-fun .91 () Bool X_INTRODUCED_34_)
(define-fun .435 () Bool (<= .418 .10))
(define-fun .436 () Bool (not .435))
(define-fun .437 () Bool (or .91 .436))
(define-fun .438 () Bool (not .91))
(define-fun .439 () Bool (or .435 .438))
(define-fun .440 () Bool (and .437 .439))
(assert .440)
(define-fun .92 () Bool X_INTRODUCED_35_)
(define-fun .441 () Bool (not .92))
(define-fun .442 () Bool (or .69 .441))
(define-fun .443 () Bool (or .92 .359))
(define-fun .444 () Bool (or .91 .441))
(define-fun .445 () Bool (and .442 .444))
(define-fun .446 () Bool (or .438 .443))
(define-fun .447 () Bool (and .445 .446))
(assert .447)
(define-fun .448 () Bool (<= .93 .9))
(define-fun .449 () Bool (<= .8 .93))
(define-fun .450 () Bool (not .449))
(define-fun .451 () Bool (not .448))
(define-fun .452 () Bool (or .450 .451))
(define-fun .453 () Bool (or .92 .448))
(define-fun .454 () Bool (and .452 .453))
(define-fun .455 () Bool (or .441 .449))
(define-fun .456 () Bool (and .454 .455))
(define-fun .457 () Bool (and .95 .456))
(define-fun .458 () Bool (and .94 .457))
(assert .458)
(define-fun .460 () Int (* .10 .97))
(define-fun .462 () Int (+ .93 .460))
(define-fun .463 () Int (+ .87 .462))
(define-fun .464 () Bool (= .463 .9))
(assert .464)
(define-fun .101 () Bool X_INTRODUCED_39_)
(define-fun .466 () Int (+ .20 .260))
(define-fun .467 () Bool (<= .8 .466))
(define-fun .468 () Bool (not .467))
(define-fun .469 () Bool (or .101 .468))
(define-fun .470 () Bool (not .101))
(define-fun .471 () Bool (or .467 .470))
(define-fun .472 () Bool (and .469 .471))
(assert .472)
(define-fun .102 () Bool X_INTRODUCED_40_)
(define-fun .473 () Bool (not .102))
(define-fun .474 () Bool (or .101 .473))
(define-fun .475 () Bool (or .102 .470))
(define-fun .476 () Bool (and .474 .475))
(assert .476)
(define-fun .477 () Bool (<= .103 .9))
(define-fun .478 () Bool (<= .8 .103))
(define-fun .479 () Bool (not .478))
(define-fun .480 () Bool (not .477))
(define-fun .481 () Bool (or .479 .480))
(define-fun .482 () Bool (or .102 .477))
(define-fun .483 () Bool (and .481 .482))
(define-fun .484 () Bool (or .473 .478))
(define-fun .485 () Bool (and .483 .484))
(define-fun .486 () Bool (and .105 .485))
(define-fun .487 () Bool (and .104 .486))
(assert .487)
(define-fun .107 () Bool X_INTRODUCED_42_)
(define-fun .488 () Bool (<= .466 .10))
(define-fun .489 () Bool (not .488))
(define-fun .490 () Bool (or .107 .489))
(define-fun .491 () Bool (not .107))
(define-fun .492 () Bool (or .488 .491))
(define-fun .493 () Bool (and .490 .492))
(assert .493)
(define-fun .108 () Bool X_INTRODUCED_43_)
(define-fun .494 () Bool (not .108))
(define-fun .495 () Bool (or .91 .494))
(define-fun .496 () Bool (or .108 .438))
(define-fun .497 () Bool (or .107 .494))
(define-fun .498 () Bool (and .495 .497))
(define-fun .499 () Bool (or .491 .496))
(define-fun .500 () Bool (and .498 .499))
(assert .500)
(define-fun .501 () Bool (<= .109 .9))
(define-fun .502 () Bool (<= .8 .109))
(define-fun .503 () Bool (not .502))
(define-fun .504 () Bool (not .501))
(define-fun .505 () Bool (or .503 .504))
(define-fun .506 () Bool (or .108 .501))
(define-fun .507 () Bool (and .505 .506))
(define-fun .508 () Bool (or .494 .502))
(define-fun .509 () Bool (and .507 .508))
(define-fun .510 () Bool (and .111 .509))
(define-fun .511 () Bool (and .110 .510))
(assert .511)
(define-fun .513 () Int (* .10 .113))
(define-fun .515 () Int (+ .109 .513))
(define-fun .516 () Int (+ .103 .515))
(define-fun .517 () Bool (= .516 .9))
(assert .517)
(define-fun .117 () Bool X_INTRODUCED_46_)
(define-fun .518 () Bool (not .117))
(define-fun .519 () Bool (or .107 .518))
(define-fun .520 () Bool (or .117 .491))
(define-fun .521 () Bool (and .519 .520))
(assert .521)
(define-fun .522 () Bool (<= .118 .9))
(define-fun .523 () Bool (<= .8 .118))
(define-fun .524 () Bool (not .523))
(define-fun .525 () Bool (not .522))
(define-fun .526 () Bool (or .524 .525))
(define-fun .527 () Bool (or .117 .522))
(define-fun .528 () Bool (and .526 .527))
(define-fun .529 () Bool (or .518 .523))
(define-fun .530 () Bool (and .528 .529))
(define-fun .531 () Bool (and .120 .530))
(define-fun .532 () Bool (and .119 .531))
(assert .532)
(define-fun .122 () Bool X_INTRODUCED_48_)
(define-fun .533 () Bool (not .122))
(define-fun .534 () Bool (or .75 .533))
(define-fun .535 () Bool (or .122 .383))
(define-fun .536 () Bool (or .101 .533))
(define-fun .537 () Bool (and .534 .536))
(define-fun .538 () Bool (or .470 .535))
(define-fun .539 () Bool (and .537 .538))
(assert .539)
(define-fun .540 () Bool (<= .123 .9))
(define-fun .541 () Bool (<= .8 .123))
(define-fun .542 () Bool (not .541))
(define-fun .543 () Bool (not .540))
(define-fun .544 () Bool (or .542 .543))
(define-fun .545 () Bool (or .122 .540))
(define-fun .546 () Bool (and .544 .545))
(define-fun .547 () Bool (or .533 .541))
(define-fun .548 () Bool (and .546 .547))
(define-fun .549 () Bool (and .125 .548))
(define-fun .550 () Bool (and .124 .549))
(assert .550)
(define-fun .552 () Int (* .10 .127))
(define-fun .554 () Int (+ .123 .552))
(define-fun .555 () Int (+ .118 .554))
(define-fun .556 () Bool (= .555 .9))
(assert .556)
(define-fun .143 () Bool X_INTRODUCED_59_)
(define-fun .557 () Bool (or .143 .388))
(define-fun .558 () Bool (not .143))
(define-fun .559 () Bool (or .387 .558))
(define-fun .560 () Bool (and .557 .559))
(assert .560)
(define-fun .561 () Bool (<= .144 .9))
(define-fun .562 () Bool (<= .8 .144))
(define-fun .563 () Bool (not .562))
(define-fun .564 () Bool (not .561))
(define-fun .565 () Bool (or .563 .564))
(define-fun .566 () Bool (or .143 .561))
(define-fun .567 () Bool (and .565 .566))
(define-fun .568 () Bool (or .558 .562))
(define-fun .569 () Bool (and .567 .568))
(define-fun .570 () Bool (and .146 .569))
(define-fun .571 () Bool (and .145 .570))
(assert .571)
(define-fun .148 () Bool X_INTRODUCED_61_)
(define-fun .572 () Bool (or .148 .489))
(define-fun .573 () Bool (not .148))
(define-fun .574 () Bool (or .488 .573))
(define-fun .575 () Bool (and .572 .574))
(assert .575)
(define-fun .576 () Bool (<= .149 .9))
(define-fun .577 () Bool (<= .8 .149))
(define-fun .578 () Bool (not .577))
(define-fun .579 () Bool (not .576))
(define-fun .580 () Bool (or .578 .579))
(define-fun .581 () Bool (or .148 .576))
(define-fun .582 () Bool (and .580 .581))
(define-fun .583 () Bool (or .573 .577))
(define-fun .584 () Bool (and .582 .583))
(define-fun .585 () Bool (and .151 .584))
(define-fun .586 () Bool (and .150 .585))
(assert .586)
(define-fun .160 () Int 16)
(define-fun .161 () Int 64)
(define-fun .587 () Int (* .12 .139))
(define-fun .588 () Int (* .160 .65))
(define-fun .590 () Int (* .161 .57))
(define-fun .592 () Int (* .161 .61))
(define-fun .596 () Int (* .10 .153))
(define-fun .598 () Int (+ .149 .596))
(define-fun .599 () Int (+ .144 .598))
(define-fun .600 () Int (+ .587 .599))
(define-fun .601 () Int (+ .588 .600))
(define-fun .602 () Int (+ .592 .601))
(define-fun .603 () Int (+ .590 .602))
(define-fun .604 () Bool (= .603 .12))
(assert .604)
(minimize .153 :signed :lower (- 16) :upper 170)
(check-sat)
(get-objectives)
(load-objective-model -1)
(get-model)
(exit)
